; benchmark generated from python API
(set-info :status unknown)
(declare-fun L_1 () Real)
(declare-fun C () Real)
(declare-fun A_1 () Real)
(declare-fun A_3 () Real)
(declare-fun L_2 () Real)
(declare-fun S_2 () Real)
(declare-fun A_2 () Real)
(declare-fun S_1 () Real)
(declare-fun S_3 () Real)
(declare-fun S_4 () Real)
(declare-fun A_4 () Real)
(declare-fun L_0 () Real)
(declare-fun S_0 () Real)
(declare-fun A_0 () Real)
(declare-fun B () Real)
(assert
 (let (($x3463 (<= (+ (* (- 1.0) L_2) A_3 (* (- 1.0) A_1) (* (- 2.0) C) L_1) 0.0)))
 (let (($x3503 (<= (+ (* (- 1.0) L_2) A_3 (* (- 2.0) C) (* (- 1.0) S_2)) 0.0)))
 (let (($x34 (>= L_0 0.0)))
 (let (($x572 (>= C 5.0)))
 (let (($x605 (>= B 5.0)))
 (let ((?x968 (* (- 2.0) C)))
 (let ((?x361 (* (- 1.0) A_1)))
 (let ((?x251 (* (- 1.0) L_2)))
 (let (($x51 (= L_1 L_0)))
 (let (($x61 (= L_2 L_1)))
 (let (($x1742 (<= (+ A_2 (* (- 3.0) C) (* (- 1.0) S_0) ?x251 (* (- 1.0) B)) 0.0)))
 (let (($x1751 (<= (+ A_2 (* (- 1.0) A_0) ?x968 ?x251 (* (- 1.0) B) L_0) 0.0)))
 (let (($x3404 (<= 0.0 (+ A_2 ?x361 (* (- 1.0) C) L_1 ?x251 (* (- 1.0) B)))))
 (let (($x1792 (= (+ (* (- 1.0) A_2) A_1 C (* (- 1.0) L_1) L_2 B) 0.0)))
 (let (($x3292 (or $x61 (<= (+ (* (- 1.0) A_2) (* 2.0 C) S_0 L_2 B) 0.0) $x3404)))
 (let (($x1733 (<= (+ A_2 (* (- 1.0) C) (* (- 1.0) S_2) ?x251 (* (- 1.0) B)) 0.0)))
 (let (($x4610 (or $x61 (= (+ (* (- 1.0) A_2) A_1 C (* (- 1.0) L_1) L_2) 0.0) (not (<= (+ A_2 ?x361 (* (- 1.0) C) ?x251 L_1) 0.0)))))
 (let (($x1444 (<= (+ A_1 (* (- 1.0) S_2) (* (- 1.0) L_1)) 0.0)))
 (let ((?x225 (* (- 1.0) B)))
 (let ((?x234 (* (- 1.0) L_1)))
 (let ((?x335 (* (- 1.0) S_1)))
 (let ((?x292 (* (- 1.0) C)))
 (let (($x998 (<= (+ A_1 (* (- 1.0) S_2) ?x234 ?x225) 0.0)))
 (let (($x108 (>= S_1 S_0)))
 (let (($x111 (>= S_2 S_1)))
 (let (($x117 (>= S_4 S_3)))
 (let (($x119 (>= A_1 A_0)))
 (let (($x120 (>= A_2 A_1)))
 (let (($x121 (>= A_3 A_2)))
 (and (<= (+ A_3 ?x251) S_3) $x121 $x120 $x119 $x117 $x111 $x108 (or (not (<= 0.0 (+ ?x234 L_0))) $x51) $x998 (<= (+ A_1 (* (- 1.0) A_0) ?x292 ?x234 ?x225 L_0) 0.0) (<= (+ A_1 ?x968 (* (- 1.0) S_0) ?x234 ?x225) 0.0) (<= (+ A_1 ?x292 ?x335 ?x234 ?x225) 0.0) (or $x51 (<= (+ ?x361 S_1 L_1 B) 0.0)) (or $x1444 (<= (+ C (* (- 1.0) S_2) S_0) 0.0)) (<= (+ (* (- 1.0) A_0) ?x292 S_1 L_0) 0.0) (or $x51 (<= (+ A_2 ?x361 ?x292 ?x251 L_1) 0.0)) $x4610 (<= (+ L_2 (* (- 1.0) A_3) ?x292 S_4) 0.0) (or $x61 (<= (+ A_3 (* (- 1.0) A_2) ?x292 B) 0.0)) $x1733 (or (not (<= 0.0 (+ L_1 ?x251))) $x61) (or $x61 (<= (+ (* (- 1.0) A_2) S_2 L_2 B) 0.0)) $x3292 (<= (+ A_2 ?x968 ?x335 ?x251 ?x225) 0.0) (or $x1792 (not $x3404)) $x1751 $x1742 (or $x61 (<= (+ (* (- 1.0) A_2) C S_1 L_2 B) 0.0)) (or $x51 (<= (+ ?x361 C S_0 L_1 B) 0.0)) (or $x51 (<= (+ ?x361 ?x292 S_2 L_1 B) 0.0)) (<= (+ ?x968 S_1 (* (- 1.0) S_0)) 0.0) (<= (+ (* (- 3.0) C) S_2 (* (- 1.0) S_0)) 0.0) (<= (+ (* (- 1.0) A_0) ?x968 S_2 L_0) 0.0) (<= (+ ?x251 A_3 (* (- 3.0) C) ?x335) 0.0) (<= (+ ?x251 A_3 (* (- 1.0) A_0) (* (- 3.0) C) L_0) 0.0) (<= (+ ?x968 S_2 ?x335) 0.0) (<= (+ ?x251 A_3 (* (- 4.0) C) (* (- 1.0) S_0)) 0.0) (or $x51 (<= (+ ?x251 A_3 ?x361 ?x968 L_1 B) 0.0)) $x605 $x572 $x34 (<= (+ (* (- 1.0) A_0) S_0 L_0) 0.0) (<= (+ L_2 (* (- 1.0) A_4) S_4) 0.0) (<= (+ L_2 S_3 (* (- 1.0) A_3)) 0.0) (<= (+ (* (- 1.0) A_2) S_2 L_2) 0.0) (<= (+ ?x361 S_1 L_1) 0.0) $x3503 (<= (+ A_3 (* (- 1.0) A_2) ?x292) 0.0) (<= (+ ?x361 ?x292 S_2 L_1) 0.0) $x3463)))))))))))))))))))))))))))))))
(check-sat)
